
  27    4
  10   10   10   10

   0   0   0   0   0   3 2 3 4 
   1   1   0   0   1   4 11 10 8 7 
   8   0   1   0   3   3 19 10 5 
   7   0   2   0   1   4 19 18 12 6 
   6   3   0   1   0   2 18 6 
   9   2   4   0   0   6 26 17 16 15 14 13 
   9   0   4   0   3   4 18 15 14 9 
   1   3   0   0   3   5 26 18 16 14 13 
   6   0   1   0   2   4 26 23 19 17 
   7   0   3   3   0   4 25 24 18 14 
   6   1   0   0   3   4 25 24 18 14 
   2   3   2   0   0   5 25 23 22 21 20 
   8   0   2   3   0   5 25 24 23 22 21 
   2   0   0   4   2   3 23 22 21 
   6   2   0   2   0   3 24 22 21 
   9   0   1   4   0   3 23 22 21 
   8   2   0   0   2   2 21 20 
   2   0   2   0   3   2 23 21 
   4   0   2   1   0   2 22 21 
   9   0   5   3   0   1 24 
   3   0   3   0   2   1 27
   6   0   0   1   2   1 27
   9   1   2   0   0   1 27
   8   5   0   3   0   1 27
   6   0   3   0   6   1 27
   6   4   0   0   2   1 27
   0   0   0   0   0   0 
